results/gr_files/M.gr
p tw 33 53
7 23
3 4
26 27
6 24
12 13
21 22
5 13
22 23
31 32
18 32
8 9
5 25
17 18
27 28
25 26
17 33
13 14
9 29
32 33
18 19
1 33
4 5
5 6
4 14
19 31
3 15
14 15
23 24
9 10
1 2
10 11
19 20
2 16
28 29
1 17
6 7
15 16
24 25
13 25
20 21
29 30
20 30
21 29
12 26
2 3
11 12
9 21
8 22
7 8
30 31
10 28
11 27
16 17
