results/td_files/M.td
decompose n = 41
decomposeConnected: n = 41
greedy decomposition (fill) obtained with 37 bags and width 5
11 safe separators found 
the decomposition packed into 12 bags, separatorWidth = 3, max bag size = 26
greedy decomposition (defect) obtained with 37 bags and width 5
11 safe separators found 
the decomposition packed into 12 bags, separatorWidth = 3, max bag size = 26
greedy decomposition (degree) obtained with 37 bags and width 5
6 safe separators found 
the decomposition packed into 7 bags, separatorWidth = 3, max bag size = 31
flattening
the decomposition flattened into 36 bags
s td 36 6 41
b 1 40 41
b 2 1 2 20
b 3 21 39 40
b 4 2 3 19 20
b 5 3 18 19 20
b 6 3 4 18 20
b 7 4 17 18 20
b 8 4 5 17 20
b 9 5 16 17 20
b 10 5 6 11 26 31
b 11 6 11 26 29 31
b 12 6 8 11 26 29
b 13 6 7 8 29
b 14 8 11 26 27 29
b 15 8 10 11 26 27
b 16 8 9 10 27
b 17 8 27 28 29
b 18 6 29 30 31
b 19 5 11 16 26 31 36
b 20 11 16 31 34 36
b 21 11 13 16 31 34
b 22 11 12 13 34
b 23 13 16 31 32 34
b 24 13 15 16 31 32
b 25 13 14 15 32
b 26 13 32 33 34
b 27 11 34 35 36
b 28 5 16 21 26 36
b 29 5 16 20 21
b 30 21 25 26 36
b 31 21 22 23 39
b 32 21 23 38 39
b 33 21 23 24 38
b 34 21 24 37 38
b 35 21 24 25 37
b 36 21 25 36 37
1 3
2 4
3 32
4 5
5 6
6 7
7 8
8 9
9 29
10 11
10 19
11 12
11 18
12 13
12 14
14 15
14 17
15 16
19 20
19 28
20 21
20 27
21 22
21 23
23 24
23 26
24 25
28 29
28 30
30 36
31 32
32 33
33 34
34 35
35 36
